14 36 59 29 82 19 44 9 8 6 34 20 96 
27 83 31 21 61 7 51 53 81 94 54 4 17 91 13 70 
71 88 38 87 86 3 35 89 
42 72 95 28 62 63 12 52 75 67 73 41 79 57 66 50 55 24 74 48 100 25 80 58 
92 45 5 47 15 69 64 11 99 16 85 18 90 84 46 10 43 97 32 60 77 
39 65 33 23 2 98 76 30 78 40 22 49 56 26 37 68 1 93 

